Solving original (integer) problem with strategy gdp.hull...
--- Job model.gms Start 02/15/26 21:42:25 52.2.0 d8e408be LEX-LEG x86 64bit/Linux
--- Applying:
    /package/gams/52.2/gmsprmun.txt
--- GAMS Parameters defined
    Input /local/scratch/a/sgusev/repos/k_means/data/gams_scip_gdp.hull/no_mode/2026-02-15_21-42-24/original/model.gms
    Output /local/scratch/a/sgusev/repos/k_means/data/gams_scip_gdp.hull/no_mode/2026-02-15_21-42-24/original/output.lst
    ScrDir /local/scratch/a/sgusev/repos/k_means/data/gams_scip_gdp.hull/no_mode/2026-02-15_21-42-24/original/225a/
    SysDir /package/gams/52.2/
    CurDir /local/scratch/a/sgusev/repos/k_means/data/gams_scip_gdp.hull/no_mode/2026-02-15_21-42-24/original/
    LogOption 3
    AppendLog 1
Licensee: David Bernal / SECQUOIA Research Group         G251008+0003Ac-GEN
          Purdue University, Davidson School of Chemical EngineeringDCE4838
          225a/gamslice.dat
          5a82958a-fbca-4a23
          node:66820903 mem:995 cores:48 ipport:39219 v:2                  
          Evaluation license: Not for commercial or production use
          The time-limited license stops working on : Jun 30, 2027
System information: 48 physical cores and 995 Gb physical memory detected
GAMS 52.2.0   Copyright (C) 1987-2025 GAMS Development. All rights reserved
--- Starting compilation
--- model.gms(1529) 2 Mb
--- $echo File /local/scratch/a/sgusev/repos/k_means/data/gams_scip_gdp.hull/no_mode/2026-02-15_21-42-24/original/scip.opt
--- model.gms(2290) 2 Mb
--- Starting execution: elapsed 0:00:00.011
--- model.gms(1539) 3 Mb
--- Generating MINLP model GAMS_MODEL
--- model.gms(1543) 5 Mb
---   459 rows  235 columns  1,109 non-zeroes
---   1,116 nl-code  144 nl-non-zeroes
---   36 discrete-columns
--- Range statistics (absolute non-zero finite values)
--- RHS       [min, max] : [ 9.248E-06, 1.000E+00] - Zero values observed as well
--- Bound     [min, max] : [ 1.000E+00, 4.800E+01] - Zero values observed as well
--- Matrix    [min, max] : [ 9.248E-02, 4.800E+01]
--- model.gms(1543) 3 Mb
--- Executing SCIP (Solvelink=5): elapsed 0:00:00.016

SCIP             52.2.0 d8e408be Dec 8, 2025           LEG x86 64bit/Linux    
SCIP version 9.2.4 (a94f778ac8)
Copyright (c) 2002-2025 Zuse Institute Berlin (ZIB)

External libraries: 
  CPLEX 22.1.2.0       Linear Programming Solver developed by IBM (www.cplex.com)
  CppAD 20180000.0     Algorithmic Differentiation of C++ algorithms developed by B. Bell (github.com/coin-or/CppAD)
  PaPILO 2.4.4         parallel presolve for integer and linear optimization (github.com/scipopt/papilo) (built with TBB) [GitHash: 7c826d50]
  Nauty 2.8.9          Computing Graph Automorphism Groups by Brendan D. McKay (users.cecs.anu.edu.au/~bdm/nauty)
  sassy 1.1            Symmetry preprocessor by Markus Anders (github.com/markusa4/sassy)
  Ipopt 3.14.19        Interior Point Optimizer developed by A. Waechter et.al. (github.com/coin-or/Ipopt)

reading option file /local/scratch/a/sgusev/repos/k_means/data/gams_scip_gdp.hull/no_mode/2026-02-15_21-42-24/original/scip.opt
non-default parameter settings:
limits/time = 300
limits/gap = 1e-06
limits/absgap = 1e-10
lp/threads = 1
misc/printreason = FALSE
numerics/dualfeastol = 1e-06
parallel/maxnthreads = 1
nlpi/ipopt/linear_solver = "ma27"
nlpi/ipopt/linear_system_scaling = "mc19"

original problem has 234 variables (36 bin, 0 int, 198 cont) and 458 constraints

all 1 solutions given by solution candidate storage are infeasible

presolving:
(round 1, fast)       12 del vars, 0 del conss, 0 add conss, 0 chg bounds, 0 chg sides, 0 chg coeffs, 0 upgd conss, 0 impls, 12 clqs
(round 2, fast)       12 del vars, 0 del conss, 0 add conss, 0 chg bounds, 12 chg sides, 0 chg coeffs, 0 upgd conss, 0 impls, 12 clqs
(round 3, exhaustive) 12 del vars, 0 del conss, 0 add conss, 0 chg bounds, 12 chg sides, 0 chg coeffs, 336 upgd conss, 0 impls, 12 clqs
   (0.0s) probing cycle finished: starting next cycle
   (0.0s) symmetry computation started: requiring (bin +, int +, cont +), (fixed: bin -, int -, cont -)
   (0.0s) no symmetry present (symcode time: 0.00)
presolving (4 rounds: 4 fast, 2 medium, 2 exhaustive):
 12 deleted vars, 0 deleted constraints, 0 added constraints, 0 tightened bounds, 0 added holes, 12 changed sides, 0 changed coefficients
 684 implications, 12 cliques
presolved problem has 222 variables (36 bin, 0 int, 0 impl, 186 cont) and 458 constraints
    324 constraints of type <varbound>
     12 constraints of type <setppc>
     86 constraints of type <linear>
     36 constraints of type <nonlinear>
Presolving Time: 0.03

 time | node  | left  |LP iter|LP it/n|mem/heur|mdpt |vars |cons |rows |cuts |sepa|confs|strbr|  dualbound   | primalbound  |  gap   | compl. 
  0.1s|     1 |     0 |   455 |     - |  9950k |   0 | 798 | 458 |1339 |   0 |  0 |   0 |   0 | 0.000000e+00 |      --      |    Inf | unknown
p 0.1s|     1 |     0 |   759 |     - |  clique|   0 | 798 | 458 |1339 |   0 |  0 |   0 |   0 | 0.000000e+00 | 8.934833e+00 |    Inf | unknown
  0.1s|     1 |     0 |   936 |     - |    10M |   0 | 798 | 458 |1389 |  50 |  1 |   0 |   0 | 0.000000e+00 | 8.934833e+00 |    Inf | unknown
  0.1s|     1 |     0 |   936 |     - |    10M |   0 | 798 | 458 |1377 |  50 |  1 |   0 |   0 | 0.000000e+00 | 8.934833e+00 |    Inf | unknown
  0.2s|     1 |     0 |  1163 |     - |    11M |   0 | 798 | 458 |1428 | 101 |  2 |   0 |   0 | 0.000000e+00 | 8.934833e+00 |    Inf | unknown
  0.2s|     1 |     0 |  1359 |     - |    11M |   0 | 798 | 458 |1473 | 146 |  3 |   0 |   0 | 0.000000e+00 | 8.934833e+00 |    Inf | unknown
  0.2s|     1 |     0 |  1438 |     - |    11M |   0 | 798 | 458 |1517 | 190 |  4 |   0 |   0 | 0.000000e+00 | 8.934833e+00 |    Inf | unknown
  0.2s|     1 |     0 |  1555 |     - |    11M |   0 | 798 | 458 |1554 | 227 |  5 |   0 |   0 | 0.000000e+00 | 8.934833e+00 |    Inf | unknown
  0.2s|     1 |     0 |  1693 |     - |    11M |   0 | 798 | 458 |1588 | 261 |  6 |   0 |   0 | 0.000000e+00 | 8.934833e+00 |    Inf | unknown
  0.3s|     1 |     0 |  1737 |     - |    12M |   0 | 798 | 458 |1619 | 292 |  7 |   0 |   0 | 0.000000e+00 | 8.934833e+00 |    Inf | unknown
  0.3s|     1 |     0 |  1792 |     - |    12M |   0 | 798 | 458 |1643 | 316 |  8 |   0 |   0 | 0.000000e+00 | 8.934833e+00 |    Inf | unknown
  0.3s|     1 |     0 |  1839 |     - |    12M |   0 | 798 | 458 |1672 | 345 |  9 |   0 |   0 | 0.000000e+00 | 8.934833e+00 |    Inf | unknown
  0.3s|     1 |     0 |  1904 |     - |    12M |   0 | 798 | 458 | 998 | 380 | 10 |   0 |   0 | 0.000000e+00 | 8.934833e+00 |    Inf | unknown
  0.3s|     1 |     0 |  1929 |     - |    12M |   0 | 798 | 458 |1026 | 408 | 11 |   0 |   0 | 0.000000e+00 | 8.934833e+00 |    Inf | unknown
  0.3s|     1 |     0 |  2047 |     - |    12M |   0 | 798 | 458 |1050 | 432 | 12 |   0 |   0 | 0.000000e+00 | 8.934833e+00 |    Inf | unknown
 time | node  | left  |LP iter|LP it/n|mem/heur|mdpt |vars |cons |rows |cuts |sepa|confs|strbr|  dualbound   | primalbound  |  gap   | compl. 
  0.3s|     1 |     0 |  2109 |     - |    12M |   0 | 798 | 458 |1073 | 455 | 13 |   0 |   0 | 0.000000e+00 | 8.934833e+00 |    Inf | unknown
  0.4s|     1 |     0 |  2168 |     - |    13M |   0 | 798 | 458 |1093 | 475 | 14 |   0 |   0 | 0.000000e+00 | 8.934833e+00 |    Inf | unknown
  0.4s|     1 |     0 |  2215 |     - |    13M |   0 | 798 | 458 | 953 | 487 | 15 |   0 |   0 | 0.000000e+00 | 8.934833e+00 |    Inf | unknown
  0.4s|     1 |     0 |  2276 |     - |    13M |   0 | 798 | 458 | 974 | 508 | 16 |   0 |   0 | 0.000000e+00 | 8.934833e+00 |    Inf | unknown
  0.6s|     1 |     0 |  6911 |     - |    13M |   0 | 798 | 446 | 974 | 508 | 16 |   0 |   0 | 0.000000e+00 | 8.934833e+00 |    Inf | unknown
  0.6s|     1 |     0 |  6960 |     - |    13M |   0 | 798 | 446 | 999 | 533 | 17 |   0 |   0 | 0.000000e+00 | 8.934833e+00 |    Inf | unknown
  0.6s|     1 |     0 |  7005 |     - |    13M |   0 | 798 | 446 |1018 | 552 | 18 |   0 |   0 | 0.000000e+00 | 8.934833e+00 |    Inf | unknown
  0.7s|     1 |     0 |  7069 |     - |    13M |   0 | 798 | 446 | 933 | 576 | 19 |   0 |   0 | 0.000000e+00 | 8.934833e+00 |    Inf | unknown
  0.7s|     1 |     0 |  7089 |     - |    13M |   0 | 798 | 446 | 953 | 596 | 20 |   0 |   0 | 0.000000e+00 | 8.934833e+00 |    Inf | unknown
  0.7s|     1 |     0 |  7115 |     - |    13M |   0 | 798 | 446 | 970 | 613 | 21 |   0 |   0 | 0.000000e+00 | 8.934833e+00 |    Inf | unknown
  0.7s|     1 |     0 |  7171 |     - |    13M |   0 | 798 | 446 | 990 | 633 | 22 |   0 |   0 | 0.000000e+00 | 8.934833e+00 |    Inf | unknown
  0.7s|     1 |     0 |  7185 |     - |    13M |   0 | 798 | 446 |1004 | 647 | 23 |   0 |   0 | 0.000000e+00 | 8.934833e+00 |    Inf | unknown
  0.7s|     1 |     0 |  7196 |     - |    13M |   0 | 798 | 446 |1019 | 662 | 24 |   0 |   0 | 0.000000e+00 | 8.934833e+00 |    Inf | unknown
  0.7s|     1 |     0 |  7217 |     - |    13M |   0 | 798 | 446 | 901 | 675 | 25 |   0 |   0 | 0.000000e+00 | 8.934833e+00 |    Inf | unknown
  0.7s|     1 |     0 |  7241 |     - |    13M |   0 | 798 | 446 | 916 | 690 | 26 |   0 |   0 | 0.000000e+00 | 8.934833e+00 |    Inf | unknown
 time | node  | left  |LP iter|LP it/n|mem/heur|mdpt |vars |cons |rows |cuts |sepa|confs|strbr|  dualbound   | primalbound  |  gap   | compl. 
  0.7s|     1 |     0 |  7273 |     - |    13M |   0 | 798 | 446 | 938 | 712 | 27 |   0 |   0 | 0.000000e+00 | 8.934833e+00 |    Inf | unknown
L 0.8s|     1 |     0 |  7330 |     - |    rens|   0 | 798 | 446 | 938 | 712 | 27 |   0 |   0 | 0.000000e+00 | 6.437399e+00 |    Inf | unknown
  1.4s|     1 |     0 |  7332 |     - |    15M |   0 | 798 | 446 | 938 | 712 | 27 |   0 |   0 | 0.000000e+00 | 6.437399e+00 |    Inf | unknown
  1.4s|     1 |     0 |  7365 |     - |    15M |   0 | 798 | 446 | 963 | 737 | 28 |   0 |   0 | 0.000000e+00 | 6.437399e+00 |    Inf | unknown
  1.4s|     1 |     0 |  7374 |     - |    15M |   0 | 798 | 446 | 865 | 743 | 29 |   0 |   0 | 0.000000e+00 | 6.437399e+00 |    Inf | unknown
  1.4s|     1 |     0 |  7384 |     - |    15M |   0 | 798 | 446 | 865 | 743 | 29 |   0 |   1 | 0.000000e+00 | 6.437399e+00 |    Inf | unknown
  1.4s|     1 |     0 |  7435 |     - |    15M |   0 | 798 | 446 | 883 | 761 | 30 |   0 |   1 | 0.000000e+00 | 6.437399e+00 |    Inf | unknown
  1.4s|     1 |     0 |  7454 |     - |    15M |   0 | 798 | 446 | 889 | 767 | 31 |   0 |   1 | 0.000000e+00 | 6.437399e+00 |    Inf | unknown
  1.4s|     1 |     0 |  7454 |     - |    15M |   0 | 798 | 446 | 889 | 767 | 31 |   0 |   2 | 0.000000e+00 | 6.437399e+00 |    Inf | unknown
  1.4s|     1 |     0 |  7480 |     - |    15M |   0 | 798 | 446 | 918 | 796 | 32 |   0 |   2 | 0.000000e+00 | 6.437399e+00 |    Inf | unknown
  1.4s|     1 |     0 |  7488 |     - |    15M |   0 | 798 | 446 | 921 | 799 | 33 |   0 |   2 | 0.000000e+00 | 6.437399e+00 |    Inf | unknown
  1.4s|     1 |     0 |  7504 |     - |    15M |   0 | 798 | 446 | 822 | 799 | 33 |   0 |   3 | 0.000000e+00 | 6.437399e+00 |    Inf | unknown
  1.4s|     1 |     0 |  7530 |     - |    15M |   0 | 798 | 446 | 844 | 821 | 34 |   0 |   3 | 0.000000e+00 | 6.437399e+00 |    Inf | unknown
  1.4s|     1 |     0 |  7534 |     - |    15M |   0 | 798 | 446 | 846 | 823 | 35 |   0 |   3 | 0.000000e+00 | 6.437399e+00 |    Inf | unknown
  1.4s|     1 |     0 |  7535 |     - |    15M |   0 | 798 | 446 | 846 | 823 | 35 |   0 |   4 | 0.000000e+00 | 6.437399e+00 |    Inf | unknown
 time | node  | left  |LP iter|LP it/n|mem/heur|mdpt |vars |cons |rows |cuts |sepa|confs|strbr|  dualbound   | primalbound  |  gap   | compl. 
  1.4s|     1 |     0 |  7564 |     - |    15M |   0 | 798 | 446 | 861 | 838 | 36 |   0 |   4 | 0.000000e+00 | 6.437399e+00 |    Inf | unknown
  1.4s|     1 |     0 |  7566 |     - |    15M |   0 | 798 | 446 | 863 | 840 | 37 |   0 |   4 | 0.000000e+00 | 6.437399e+00 |    Inf | unknown
  1.4s|     1 |     0 |  7569 |     - |    15M |   0 | 798 | 446 | 800 | 840 | 37 |   0 |   5 | 0.000000e+00 | 6.437399e+00 |    Inf | unknown
  1.4s|     1 |     0 |  7602 |     - |    15M |   0 | 798 | 446 | 812 | 852 | 38 |   0 |   5 | 0.000000e+00 | 6.437399e+00 |    Inf | unknown
  1.4s|     1 |     0 |  7629 |     - |    15M |   0 | 798 | 446 | 820 | 860 | 39 |   0 |   5 | 0.000000e+00 | 6.437399e+00 |    Inf | unknown
  1.4s|     1 |     0 |  7629 |     - |    15M |   0 | 798 | 446 | 820 | 860 | 39 |   0 |   6 | 0.000000e+00 | 6.437399e+00 |    Inf | unknown
  1.4s|     1 |     0 |  7676 |     - |    15M |   0 | 798 | 446 | 846 | 886 | 40 |   0 |   6 | 0.000000e+00 | 6.437399e+00 |    Inf | unknown
  1.4s|     1 |     0 |  7686 |     - |    15M |   0 | 798 | 446 | 855 | 895 | 41 |   0 |   6 | 0.000000e+00 | 6.437399e+00 |    Inf | unknown
  1.4s|     1 |     0 |  7687 |     - |    15M |   0 | 798 | 446 | 855 | 895 | 41 |   0 |   7 | 0.000000e+00 | 6.437399e+00 |    Inf | unknown
  1.5s|     1 |     0 |  7725 |     - |    15M |   0 | 798 | 446 | 824 | 917 | 42 |   0 |   7 | 0.000000e+00 | 6.437399e+00 |    Inf | unknown
  1.5s|     1 |     0 |  7740 |     - |    15M |   0 | 798 | 446 | 829 | 922 | 43 |   0 |   7 | 0.000000e+00 | 6.437399e+00 |    Inf | unknown
  1.5s|     1 |     0 |  7748 |     - |    15M |   0 | 798 | 446 | 829 | 922 | 43 |   0 |   8 | 0.000000e+00 | 6.437399e+00 |    Inf | unknown
  1.5s|     1 |     0 |  7791 |     - |    15M |   0 | 798 | 446 | 845 | 938 | 44 |   0 |   8 | 0.000000e+00 | 6.437399e+00 |    Inf | unknown
  1.5s|     1 |     0 |  7798 |     - |    15M |   0 | 798 | 446 | 849 | 942 | 45 |   0 |   8 | 0.000000e+00 | 6.437399e+00 |    Inf | unknown
  1.5s|     1 |     0 |  7806 |     - |    15M |   0 | 798 | 446 | 849 | 942 | 45 |   0 |   9 | 0.000000e+00 | 6.437399e+00 |    Inf | unknown
 time | node  | left  |LP iter|LP it/n|mem/heur|mdpt |vars |cons |rows |cuts |sepa|confs|strbr|  dualbound   | primalbound  |  gap   | compl. 
  1.5s|     1 |     0 |  7835 |     - |    15M |   0 | 798 | 446 | 828 | 954 | 46 |   0 |   9 | 0.000000e+00 | 6.437399e+00 |    Inf | unknown
  1.5s|     1 |     0 |  7837 |     - |    15M |   0 | 798 | 446 | 830 | 956 | 47 |   0 |   9 | 0.000000e+00 | 6.437399e+00 |    Inf | unknown
  1.5s|     1 |     0 |  7837 |     - |    15M |   0 | 798 | 446 | 830 | 956 | 47 |   0 |  10 | 0.000000e+00 | 6.437399e+00 |    Inf | unknown
  1.5s|     1 |     0 |  7877 |     - |    15M |   0 | 798 | 446 | 848 | 974 | 48 |   0 |  10 | 0.000000e+00 | 6.437399e+00 |    Inf | unknown
  1.5s|     1 |     0 |  7907 |     - |    15M |   0 | 798 | 446 | 854 | 980 | 49 |   0 |  10 | 0.000000e+00 | 6.437399e+00 |    Inf | unknown
  1.5s|     1 |     0 |  7909 |     - |    15M |   0 | 798 | 446 | 854 | 980 | 49 |   0 |  11 | 0.000000e+00 | 6.437399e+00 |    Inf | unknown
  1.5s|     1 |     0 |  7953 |     - |    15M |   0 | 798 | 446 | 866 | 992 | 50 |   0 |  11 | 0.000000e+00 | 6.437399e+00 |    Inf | unknown
  1.5s|     1 |     0 |  7964 |     - |    15M |   0 | 798 | 446 | 821 | 998 | 51 |   0 |  11 | 0.000000e+00 | 6.437399e+00 |    Inf | unknown
  1.5s|     1 |     0 |  7965 |     - |    15M |   0 | 798 | 446 | 821 | 998 | 51 |   0 |  12 | 0.000000e+00 | 6.437399e+00 |    Inf | unknown
  1.5s|     1 |     0 |  8047 |     - |    15M |   0 | 798 | 446 | 853 |1030 | 52 |   0 |  12 | 0.000000e+00 | 6.437399e+00 |    Inf | unknown
  1.5s|     1 |     0 |  8074 |     - |    15M |   0 | 798 | 446 | 863 |1040 | 53 |   0 |  12 | 0.000000e+00 | 6.437399e+00 |    Inf | unknown
  1.5s|     1 |     0 |  8074 |     - |    15M |   0 | 798 | 446 | 863 |1040 | 53 |   0 |  13 | 0.000000e+00 | 6.437399e+00 |    Inf | unknown
  1.5s|     1 |     0 |  8130 |     - |    15M |   0 | 798 | 446 | 882 |1059 | 54 |   0 |  13 | 0.000000e+00 | 6.437399e+00 |    Inf | unknown
  1.5s|     1 |     0 |  8132 |     - |    15M |   0 | 798 | 446 | 840 |1060 | 55 |   0 |  13 | 0.000000e+00 | 6.437399e+00 |    Inf | unknown
  1.5s|     1 |     0 |  8133 |     - |    15M |   0 | 798 | 446 | 840 |1060 | 55 |   0 |  14 | 0.000000e+00 | 6.437399e+00 |    Inf | unknown
 time | node  | left  |LP iter|LP it/n|mem/heur|mdpt |vars |cons |rows |cuts |sepa|confs|strbr|  dualbound   | primalbound  |  gap   | compl. 
  1.6s|     1 |     0 |  8188 |     - |    15M |   0 | 798 | 446 | 871 |1091 | 56 |   0 |  14 | 0.000000e+00 | 6.437399e+00 |    Inf | unknown
  1.6s|     1 |     0 |  8218 |     - |    15M |   0 | 798 | 446 | 882 |1102 | 57 |   0 |  14 | 0.000000e+00 | 6.437399e+00 |    Inf | unknown
  1.6s|     1 |     0 |  8218 |     - |    15M |   0 | 798 | 446 | 882 |1102 | 57 |   0 |  15 | 0.000000e+00 | 6.437399e+00 |    Inf | unknown
  1.6s|     1 |     0 |  8239 |     - |    15M |   0 | 798 | 446 | 900 |1120 | 58 |   0 |  15 | 0.000000e+00 | 6.437399e+00 |    Inf | unknown
  1.6s|     1 |     0 |  8246 |     - |    15M |   0 | 798 | 446 | 903 |1123 | 59 |   0 |  15 | 0.000000e+00 | 6.437399e+00 |    Inf | unknown
  1.6s|     1 |     0 |  8268 |     - |    15M |   0 | 798 | 446 | 867 |1123 | 59 |   0 |  16 | 0.000000e+00 | 6.437399e+00 |    Inf | unknown
  1.6s|     1 |     0 |  8291 |     - |    15M |   0 | 798 | 446 | 877 |1133 | 60 |   0 |  16 | 0.000000e+00 | 6.437399e+00 |    Inf | unknown
  1.6s|     1 |     0 |  8303 |     - |    15M |   0 | 798 | 446 | 879 |1135 | 61 |   0 |  16 | 0.000000e+00 | 6.437399e+00 |    Inf | unknown
  1.6s|     1 |     0 |  8305 |     - |    15M |   0 | 798 | 446 | 879 |1135 | 61 |   0 |  17 | 0.000000e+00 | 6.437399e+00 |    Inf | unknown
  1.6s|     1 |     0 |  8335 |     - |    15M |   0 | 798 | 446 | 903 |1159 | 62 |   0 |  17 | 0.000000e+00 | 6.437399e+00 |    Inf | unknown
  1.6s|     1 |     0 |  8348 |     - |    15M |   0 | 798 | 446 | 905 |1161 | 63 |   0 |  17 | 0.000000e+00 | 6.437399e+00 |    Inf | unknown
  1.6s|     1 |     0 |  8349 |     - |    15M |   0 | 798 | 446 | 836 |1161 | 63 |   0 |  18 | 0.000000e+00 | 6.437399e+00 |    Inf | unknown
  1.6s|     1 |     0 |  8388 |     - |    15M |   0 | 798 | 446 | 868 |1193 | 64 |   0 |  18 | 0.000000e+00 | 6.437399e+00 |    Inf | unknown
  1.6s|     1 |     0 |  8394 |     - |    15M |   0 | 798 | 446 | 869 |1194 | 65 |   0 |  18 | 0.000000e+00 | 6.437399e+00 |    Inf | unknown
  1.6s|     1 |     2 |  8394 |     - |    15M |   0 | 798 | 446 | 869 |1194 | 65 |   0 |  18 | 0.000000e+00 | 6.437399e+00 |    Inf | unknown
 time | node  | left  |LP iter|LP it/n|mem/heur|mdpt |vars |cons |rows |cuts |sepa|confs|strbr|  dualbound   | primalbound  |  gap   | compl. 
L 1.9s|    13 |    14 |  9785 | 523.7 |  subnlp|   7 | 798 | 446 |1006 |2129 |  7 |   0 |  21 | 0.000000e+00 | 5.807922e+00 |    Inf | unknown
d 2.4s|    42 |    43 | 12421 | 217.6 |nlpdivin|  12 | 798 | 446 |1048 |   0 |  9 |   0 |  43 | 0.000000e+00 | 4.678933e+00 |    Inf | unknown
  3.5s|   100 |   101 | 17561 | 142.0 |    18M |  14 | 798 | 446 |1030 |8555 | 10 |   0 |  57 | 0.000000e+00 | 4.678933e+00 |    Inf | unknown
d 3.6s|   104 |    99 | 17951 | 140.3 |nlpdivin|  15 | 798 | 446 |1086 |   0 |  9 |   0 |  59 | 0.000000e+00 | 3.170001e+00 |    Inf | unknown
  5.5s|   200 |   195 | 29696 | 131.6 |    24M |  15 | 798 | 446 |1048 |  18k|  7 |   0 | 116 | 0.000000e+00 | 3.170001e+00 |    Inf | unknown
  7.5s|   300 |   295 | 43301 | 133.1 |    28M |  15 | 798 | 446 |1115 |  28k|  7 |   0 | 136 | 0.000000e+00 | 3.170001e+00 |    Inf | unknown
  9.6s|   400 |   385 | 59717 | 140.9 |    34M |  15 | 798 | 446 | 965 |  38k|  2 |   0 | 182 | 0.000000e+00 | 3.170001e+00 |    Inf | unknown
 11.7s|   500 |   483 | 75276 | 143.8 |    38M |  15 | 798 | 446 |1102 |  50k| 10 |   0 | 206 | 0.000000e+00 | 3.170001e+00 |    Inf | unknown
 13.6s|   600 |   571 | 87110 | 139.6 |    41M |  19 | 798 | 446 |1067 |  58k|  8 |   0 | 256 | 2.521068e-01 | 3.170001e+00 |1157.40%|   4.43%
 15.4s|   700 |   651 | 97281 | 134.2 |    45M |  19 | 798 | 446 |1086 |  66k|  9 |   0 | 292 | 2.851391e-01 | 3.170001e+00 |1011.74%|   5.65%
 16.9s|   800 |   715 |105796 | 128.0 |    46M |  19 | 798 | 446 | 965 |  73k|  2 |   0 | 324 | 2.862614e-01 | 3.170001e+00 |1007.38%|   6.98%
 18.5s|   900 |   783 |115351 | 124.4 |    49M |  21 | 798 | 446 |1109 |  80k|  7 |   0 | 346 | 3.293971e-01 | 3.170001e+00 | 862.36%|   7.38%
 19.9s|  1000 |   837 |123465 | 120.1 |    50M |  21 | 798 | 446 | 994 |  85k|  3 |   4 | 365 | 4.629719e-01 | 3.170001e+00 | 584.71%|   7.71%
 21.3s|  1100 |   895 |130870 | 115.9 |    51M |  21 | 798 | 446 |1064 |  91k|  7 |   5 | 374 | 4.728014e-01 | 3.170001e+00 | 570.47%|   7.79%
 22.7s|  1200 |   943 |138985 | 113.0 |    54M |  21 | 798 | 446 | 958 |  97k|  1 |   5 | 380 | 5.134391e-01 | 3.170001e+00 | 517.41%|   8.15%
 time | node  | left  |LP iter|LP it/n|mem/heur|mdpt |vars |cons |rows |cuts |sepa|confs|strbr|  dualbound   | primalbound  |  gap   | compl. 
 23.9s|  1300 |   989 |146103 | 109.8 |    55M |  21 | 798 | 446 |1041 | 103k|  2 |   7 | 393 | 6.486480e-01 | 3.170001e+00 | 388.71%|   8.91%
 25.2s|  1400 |  1045 |155104 | 108.4 |    56M |  21 | 798 | 446 |1042 | 109k|  2 |   9 | 411 | 7.863294e-01 | 3.170001e+00 | 303.14%|  10.49%
L25.3s|  1404 |   833 |155285 | 108.2 |    gins|  22 | 798 | 446 |1090 | 109k|  2 |   9 | 411 | 8.309040e-01 | 2.665216e+00 | 220.76%|  12.81%
 26.2s|  1500 |   847 |160641 | 104.8 |    56M |  22 | 798 | 446 |1058 | 112k|  2 |   9 | 416 | 8.333021e-01 | 2.665216e+00 | 219.84%|  14.63%
L27.1s|  1569 |   786 |164319 | 102.6 |    alns|  22 | 798 | 446 |1123 | 115k|  2 |   9 | 417 | 8.829905e-01 | 2.533875e+00 | 186.97%|  16.66%
 27.5s|  1600 |   793 |166174 | 101.7 |    56M |  22 | 798 | 446 |1095 | 116k|  2 |   9 | 419 | 8.905664e-01 | 2.533875e+00 | 184.52%|  17.36%
 28.5s|  1700 |   813 |172690 |  99.6 |    57M |  22 | 798 | 446 |1033 | 120k|  3 |   9 | 420 | 8.966155e-01 | 2.533875e+00 | 182.60%|  18.65%
 29.6s|  1800 |   821 |180592 |  98.4 |    57M |  22 | 798 | 446 |1053 | 125k|  2 |   9 | 423 | 9.131286e-01 | 2.533875e+00 | 177.49%|  21.31%
 30.7s|  1900 |   851 |186989 |  96.6 |    58M |  22 | 798 | 446 |1106 | 129k| 12 |  11 | 425 | 9.480283e-01 | 2.533875e+00 | 167.28%|  23.41%
 31.5s|  2000 |   871 |192045 |  94.3 |    58M |  22 | 798 | 446 |1007 | 133k|  8 |  11 | 430 | 1.006757e+00 | 2.533875e+00 | 151.69%|  25.02%
 32.5s|  2100 |   891 |198005 |  92.7 |    59M |  23 | 798 | 446 |1040 | 136k|  2 |  11 | 435 | 1.034477e+00 | 2.533875e+00 | 144.94%|  27.22%
 33.5s|  2200 |   931 |203583 |  91.0 |    60M |  23 | 798 | 446 |1071 | 140k|  4 |  14 | 439 | 1.043670e+00 | 2.533875e+00 | 142.79%|  28.14%
 34.5s|  2300 |   941 |209533 |  89.6 |    61M |  23 | 798 | 446 |1050 | 144k|  2 |  15 | 445 | 1.080231e+00 | 2.533875e+00 | 134.57%|  29.42%
 35.4s|  2400 |   957 |215332 |  88.3 |    63M |  23 | 798 | 446 |1064 | 147k|  2 |  15 | 445 | 1.131311e+00 | 2.533875e+00 | 123.98%|  30.94%
 36.4s|  2500 |   963 |220881 |  87.0 |    63M |  23 | 798 | 446 |1052 | 151k|  2 |  17 | 447 | 1.194130e+00 | 2.533875e+00 | 112.19%|  33.56%
 time | node  | left  |LP iter|LP it/n|mem/heur|mdpt |vars |cons |rows |cuts |sepa|confs|strbr|  dualbound   | primalbound  |  gap   | compl. 
 37.2s|  2600 |   971 |225707 |  85.5 |    63M |  23 | 798 | 446 |1025 | 154k|  2 |  19 | 451 | 1.225299e+00 | 2.533875e+00 | 106.80%|  35.13%
 38.3s|  2700 |   979 |230563 |  84.1 |    64M |  25 | 798 | 446 | 919 | 157k|  2 |  20 | 456 | 1.236196e+00 | 2.533875e+00 | 104.97%|  36.84%
*39.1s|  2788 |   817 |235642 |  83.3 |    LP  |  25 | 798 | 446 |1168 | 160k|  8 |  20 | 461 | 1.253680e+00 | 2.373669e+00 |  89.34%|  40.33%
 39.3s|  2800 |   819 |236134 |  83.1 |    64M |  25 | 798 | 446 |1070 | 161k|  7 |  20 | 462 | 1.253680e+00 | 2.373669e+00 |  89.34%|  40.52%
 40.2s|  2900 |   827 |242658 |  82.5 |    64M |  25 | 798 | 446 |1026 | 164k|  4 |  22 | 470 | 1.267207e+00 | 2.373669e+00 |  87.32%|  41.61%
*40.3s|  2913 |   653 |243339 |  82.4 |    LP  |  25 | 798 | 446 |1151 | 164k| 10 |  22 | 470 | 1.271560e+00 | 2.199152e+00 |  72.95%|  46.69%
 41.0s|  3000 |   646 |247419 |  81.3 |    65M |  25 | 798 | 446 |1041 | 167k|  2 |  23 | 473 | 1.275638e+00 | 2.199152e+00 |  72.40%|  48.75%
 41.8s|  3100 |   656 |252963 |  80.5 |    65M |  25 | 798 | 446 |1063 | 170k|  2 |  23 | 481 | 1.276258e+00 | 2.199152e+00 |  72.31%|  50.15%
 42.6s|  3200 |   642 |257491 |  79.4 |    65M |  25 | 798 | 446 |1104 | 172k|  8 |  24 | 484 | 1.301667e+00 | 2.199152e+00 |  68.95%|  52.55%
 43.3s|  3300 |   628 |262349 |  78.5 |    65M |  25 | 798 | 446 |1030 | 175k|  1 |  25 | 488 | 1.324300e+00 | 2.199152e+00 |  66.06%|  60.38%
 44.0s|  3400 |   618 |267048 |  77.5 |    65M |  25 | 798 | 446 | 960 | 178k|  2 |  26 | 498 | 1.355386e+00 | 2.199152e+00 |  62.25%|  64.97%
 44.8s|  3500 |   606 |272042 |  76.7 |    65M |  25 | 798 | 446 |1067 | 180k|  4 |  27 | 503 | 1.361912e+00 | 2.199152e+00 |  61.48%|  67.77%
 45.7s|  3600 |   612 |276227 |  75.8 |    65M |  25 | 798 | 446 |1000 | 183k|  0 |  29 | 507 | 1.369039e+00 | 2.199152e+00 |  60.63%|  69.20%
 46.4s|  3700 |   602 |280489 |  74.9 |    66M |  25 | 798 | 446 |1058 | 185k|  2 |  32 | 511 | 1.431579e+00 | 2.199152e+00 |  53.62%|  70.94%
 47.1s|  3800 |   582 |284747 |  74.0 |    66M |  25 | 798 | 446 | 999 | 187k|  2 |  32 | 513 | 1.460391e+00 | 2.199152e+00 |  50.59%|  73.86%
 time | node  | left  |LP iter|LP it/n|mem/heur|mdpt |vars |cons |rows |cuts |sepa|confs|strbr|  dualbound   | primalbound  |  gap   | compl. 
 47.9s|  3900 |   574 |289703 |  73.4 |    66M |  25 | 798 | 446 |1001 | 190k|  3 |  33 | 519 | 1.461374e+00 | 2.199152e+00 |  50.49%|  75.75%
 48.7s|  4000 |   568 |294110 |  72.7 |    66M |  25 | 798 | 446 |   0 | 193k|  0 |  34 | 521 | 1.471324e+00 | 2.199152e+00 |  49.47%|  77.09%
 49.5s|  4100 |   550 |298135 |  71.9 |    67M |  25 | 798 | 446 | 980 | 195k|  3 |  34 | 527 | 1.483055e+00 | 2.199152e+00 |  48.29%|  79.02%
 50.3s|  4200 |   532 |302154 |  71.1 |    67M |  25 | 798 | 446 |1044 | 196k|  3 |  38 | 534 | 1.509975e+00 | 2.199152e+00 |  45.64%|  81.10%
 51.0s|  4300 |   510 |306190 |  70.4 |    67M |  25 | 798 | 446 |1083 | 199k|  2 |  38 | 539 | 1.526480e+00 | 2.199152e+00 |  44.07%|  82.93%
 51.6s|  4400 |   486 |310152 |  69.7 |    67M |  25 | 798 | 446 |1038 | 200k|  2 |  40 | 543 | 1.556801e+00 | 2.199152e+00 |  41.26%|  84.34%
 52.2s|  4500 |   468 |314490 |  69.1 |    67M |  25 | 798 | 446 |1037 | 202k|  2 |  40 | 544 | 1.661054e+00 | 2.199152e+00 |  32.39%|  85.80%
 52.8s|  4600 |   442 |317765 |  68.3 |    67M |  25 | 798 | 446 |1044 | 203k|  3 |  41 | 545 | 1.682544e+00 | 2.199152e+00 |  30.70%|  87.18%
 53.4s|  4700 |   412 |321032 |  67.6 |    67M |  25 | 798 | 446 |1021 | 205k|  2 |  41 | 545 | 1.717224e+00 | 2.199152e+00 |  28.06%|  89.09%
 54.0s|  4800 |   396 |324370 |  66.9 |    67M |  25 | 798 | 446 |1106 | 206k|  8 |  41 | 550 | 1.726965e+00 | 2.199152e+00 |  27.34%|  89.68%
 54.6s|  4900 |   358 |328137 |  66.3 |    67M |  25 | 798 | 446 | 983 | 208k|  2 |  41 | 551 | 1.748162e+00 | 2.199152e+00 |  25.80%|  91.18%
 55.2s|  5000 |   340 |332141 |  65.7 |    67M |  25 | 798 | 446 |1013 | 210k|  0 |  41 | 554 | 1.762785e+00 | 2.199152e+00 |  24.75%|  91.91%
 55.8s|  5100 |   312 |335598 |  65.1 |    67M |  25 | 798 | 446 |1016 | 211k|  1 |  42 | 554 | 1.798342e+00 | 2.199152e+00 |  22.29%|  92.91%
 56.5s|  5200 |   296 |340052 |  64.7 |    67M |  27 | 798 | 446 |1056 | 213k|  2 |  42 | 558 | 1.825545e+00 | 2.199152e+00 |  20.47%|  93.55%
 57.1s|  5300 |   278 |343989 |  64.3 |    67M |  27 | 798 | 446 |1044 | 214k|  7 |  42 | 560 | 1.842200e+00 | 2.199152e+00 |  19.38%|  94.21%
 time | node  | left  |LP iter|LP it/n|mem/heur|mdpt |vars |cons |rows |cuts |sepa|confs|strbr|  dualbound   | primalbound  |  gap   | compl. 
 57.6s|  5400 |   246 |346695 |  63.6 |    67M |  27 | 798 | 446 |1012 | 215k|  0 |  42 | 561 | 1.863058e+00 | 2.199152e+00 |  18.04%|  94.81%
 58.1s|  5500 |   210 |349613 |  62.9 |    67M |  27 | 798 | 446 |1082 | 216k|  2 |  42 | 562 | 1.896403e+00 | 2.199152e+00 |  15.96%|  95.53%
 58.7s|  5600 |   192 |352349 |  62.3 |    67M |  27 | 798 | 446 |1025 | 217k|  2 |  42 | 563 | 1.925073e+00 | 2.199152e+00 |  14.24%|  95.97%
 59.3s|  5700 |   156 |355105 |  61.7 |    67M |  27 | 798 | 446 |1056 | 218k|  2 |  42 | 564 | 1.929905e+00 | 2.199152e+00 |  13.95%|  96.50%
 59.8s|  5800 |   128 |358343 |  61.2 |    67M |  27 | 798 | 446 | 986 | 219k|  3 |  42 | 566 | 1.964672e+00 | 2.199152e+00 |  11.93%|  97.07%
 60.3s|  5900 |   108 |361213 |  60.6 |    67M |  27 | 798 | 446 |1087 | 220k|  2 |  42 | 568 | 1.978003e+00 | 2.199152e+00 |  11.18%|  98.15%
 60.8s|  6000 |    68 |364130 |  60.1 |    67M |  27 | 798 | 446 |1146 | 221k|  0 |  42 | 570 | 1.999128e+00 | 2.199152e+00 |  10.01%|  98.83%
 61.3s|  6100 |    52 |367255 |  59.6 |    68M |  27 | 798 | 446 |1135 | 222k|  8 |  42 | 571 | 2.013611e+00 | 2.199152e+00 |   9.21%|  99.23%
 61.8s|  6200 |    22 |370193 |  59.2 |    68M |  27 | 798 | 446 |1042 | 223k|  2 |  42 | 571 | 2.114788e+00 | 2.199152e+00 |   3.99%|  99.77%

SCIP Status        : problem is solved [optimal solution found]
Solving Time (sec) : 62.25
Solving Nodes      : 6292
Primal Bound       : +2.19915162323087e+00 (15 solutions)
Dual Bound         : +2.19915162323087e+00
Gap                : 0.00 %


--- Reading solution for model GAMS_MODEL
***
*** Solver did not provide marginals for model GAMS_MODEL
***
--- Executing after solve: elapsed 0:01:02.327
--- model.gms(1546) 3 Mb
--- model.gms(2290) 5 Mb
--- Putfile results /local/scratch/a/sgusev/repos/k_means/data/gams_scip_gdp.hull/no_mode/2026-02-15_21-42-24/original/results.dat
--- Putfile statresults /local/scratch/a/sgusev/repos/k_means/data/gams_scip_gdp.hull/no_mode/2026-02-15_21-42-24/original/resultsstat.dat
*** Status: Normal completion
--- Job model.gms Stop 02/15/26 21:43:27 elapsed 0:01:02.328
Original problem solved. Time taken: 62.918785095214844 seconds
Original objective value: 2.19915162323087
